000 000 -99 -99 -99 -99 -99 000 -99 -99 -99 -99 -99 -99 -99 -99 -99 -99 000 000 -99 000 000 -99 000 000 000 000 000 -99 000
000 000 -99 000 000 000 000 000 -99 -99 -99 -99 -99 -99 -99 -99 -99 -99 -99 000 000 000 000 -99 -99 000 000 000 -99 -99 000
000 000 -99 000 000 000 000 000 000 -99 -99 -99 -99 -99 000 000 -99 -99 -99 -99 000 -99 000 -99 -99 000 000 000 000 -99 -99
000 000 000 000 000 000 000 000 000 -99 -99 -99 -99 -99 000 000 -99 -99 -99 000 000 -99 -99 -99 -99 000 000 000 000 -99 -99
000 000 000 000 000 000 000 000 000 000 -99 -99 000 000 000 000 000 -99 -99 -99 000 000 -99 000 000 000 000 000 000 -99 -99
000 000 000 000 000 000 000 000 000 000 -99 -99 000 -99 000 000 000 -99 -99 000 000 000 000 000 000 000 000 000 -99 -99 -99
000 000 000 000 000 000 000 000 000 000 000 -99 -99 000 000 000 000 000 -99 000 000 000 000 000 000 000 000 -99 -99 -99 -99
000 000 000 000 000 000 000 000 000 000 -99 -99 -99 -99 -99 000 000 000 -99 -99 000 000 000 000 000 000 -99 -99 -99 000 000
000 000 000 000 000 000 000 000 000 000 -99 -99 -99 -99 -99 000 000 000 -99 -99 000 000 000 000 000 000 000 -99 000 000 000
000 000 000 000 000 000 -99 000 000 000 000 -99 000 000 000 000 003 001 000 -99 000 000 -99 -99 000 000 000 000 000 000 000
000 000 000 000 000 -99 000 000 000 000 000 000 000 000 000 000 001 001 000 -99 -99 000 -99 -99 000 000 000 000 000 000 000
000 000 000 000 000 000 000 000 000 000 000 000 000 000 000 000 000 000 000 000 000 000 -99 000 000 000 000 000 000 000 000
000 000 000 000 000 000 000 000 000 000 000 000 000 000 000 000 000 000 000 -99 -99 -99 -99 000 000 000 000 000 000 000 000
000 000 000 000 000 000 000 000 000 -99 000 000 000 000 000 000 000 000 000 -99 -99 -99 000 000 -99 -99 000 000 000 000 -99
000 000 000 000 000 000 000 000 -99 -99 -99 -99 000 000 000 000 000 000 000 -99 -99 -99 000 000 -99 -99 000 000 000 000 000
000 -99 000 000 000 000 000 000 000 -99 -99 -99 000 000 000 000 000 000 000 -99 -99 -99 000 -99 000 -99 000 000 000 000 000
000 000 -99 -99 -99 000 000 000 000 -99 -99 -99 000 000 000 000 000 -99 -99 -99 -99 -99 000 000 -99 000 -99 000 000 000 000
000 000 000 -99 -99 000 000 000 000 -99 -99 -99 -99 000 000 -99 000 000 -99 -99 -99 -99 000 -99 -99 000 -99 000 000 000 000
000 000 000 000 -99 -99 -99 000 000 -99 -99 000 -99 -99 000 -99 000 000 -99 -99 -99 000 000 -99 -99 -99 -99 000 000 000 000
-99 000 000 000 000 000 -99 000 000 -99 000 000 -99 -99 -99 -99 000 000 -99 -99 -99 -99 000 -99 -99 -99 000 000 000 000 000
000 000 000 000 000 000 000 000 000 -99 000 000 -99 -99 -99 000 000 -99 -99 -99 -99 -99 000 -99 -99 -99 000 -99 -99 000 -99
000 000 000 000 000 000 000 000 000 000 -99 -99 -99 -99 -99 000 000 -99 -99 -99 -99 -99 000 -99 -99 -99 000 -99 -99 000 -99
000 000 000 000 000 000 000 000 000 000 -99 -99 -99 -99 -99 -99 000 -99 000 000 -99 -99 000 -99 000 -99 -99 -99 -99 -99 -99
000 000 000 000 000 000 000 000 000 -99 -99 -99 -99 -99 000 000 -99 000 000 000 -99 -99 000 -99 000 -99 -99 -99 -99 -99 000
000 000 000 000 000 000 000 000 000 -99 -99 -99 -99 -99 000 000 000 000 000 000 -99 -99 000 -99 -99 -99 -99 -99 -99 -99 000
-99 000 000 000 000 000 000 000 000 000 -99 -99 -99 -99 000 000 000 000 000 -99 -99 -99 000 -99 -99 -99 -99 -99 -99 -99 000
000 -99 -99 000 000 000 000 000 000 000 -99 -99 -99 -99 000 000 000 000 000 -99 -99 -99 -99 -99 -99 -99 -99 -99 -99 -99 000
000 000 -99 000 000 000 000 000 000 -99 -99 -99 -99 -99 000 000 000 000 -99 -99 -99 000 -99 -99 -99 -99 -99 -99 -99 -99 000
000 000 000 -99 000 000 000 000 000 -99 -99 -99 -99 000 000 000 000 000 000 -99 -99 000 -99 -99 -99 -99 -99 -99 -99 -99 000
000 000 000 -99 000 000 000 000 000 000 -99 -99 -99 000 000 000 000 000 000 -99 -99 000 -99 -99 000 000 000 -99 -99 -99 -99
000 000 000 000 000 000 000 000 000 000 -99 -99 -99 -99 000 000 000 000 000 -99 -99 000 -99 000 000 000 000 -99 -99 -99 -99
000 000 000 000 000 000 000 000 000 -99 -99 -99 -99 -99 -99 -99 000 000 000 -99 000 000 000 000 000 000 000 -99 -99 -99 -99
000 000 000 -99 -99 000 000 000 000 -99 -99 -99 -99 000 000 -99 000 000 000 -99 000 000 000 000 000 000 -99 -99 -99 -99 -99
000 000 000 -99 000 000 000 -99 -99 -99 -99 -99 -99 000 000 000 000 000 000 000 000 000 000 -99 000 000 000 000 000 000 000
-99 -99 000 000 000 000 000 -99 -99 -99 -99 -99 -99 000 000 000 000 000 000 -99 000 000 000 -99 000 000 000 000 000 000 000
000 000 -99 -99 000 000 -99 000 000 -99 -99 -99 -99 000 000 000 000 000 000 000 000 000 000 -99 000 000 000 000 000 -99 000
000 000 -99 -99 -99 -99 -99 000 000 -99 -99 -99 000 -99 000 000 000 000 000 -99 000 000 000 000 000 000 000 000 -99 -99 -99
000 000 -99 000 -99 -99 -99 000 -99 -99 -99 -99 000 000 000 000 000 000 000 -99 000 000 000 000 000 000 000 -99 -99 -99 -99
000 000 -99 -99 -99 -99 -99 -99 -99 -99 -99 -99 -99 000 000 000 000 -99 -99 -99 000 000 000 000 000 000 000 -99 -99 -99 -99
-99 000 -99 -99 -99 -99 -99 -99 -99 -99 -99 -99 000 000 000 000 000 -99 -99 -99 000 -99 000 000 -99 000 000 -99 -99 -99 -99
-99 000 -99 -99 -99 -99 -99 -99 -99 -99 -99 -99 000 000 000 000 -99 -99 -99 -99 -99 -99 -99 -99 -99 -99 000 -99 -99 -99 -99
000 000 -99 -99 -99 -99 -99 -99 -99 -99 -99 -99 000 000 000 000 -99 -99 -99 -99 -99 -99 -99 -99 -99 -99 -99 -99 -99 -99 -99
-99 -99 -99 -99 -99 -99 -99 -99 000 -99 -99 000 000 -99 -99 -99 000 000 -99 000 000 -99 -99 -99 -99 -99 -99 -99 -99 -99 -99
-99 -99 -99 -99 -99 -99 000 000 000 000 000 000 000 -99 000 000 000 000 000 000 000 -99 -99 -99 -99 -99 -99 000 -99 -99 -99
-99 -99 -99 -99 -99 -99 000 000 000 000 000 000 000 -99 000 000 000 -99 000 000 000 -99 -99 -99 -99 -99 -99 000 000 -99 -99
-99 -99 -99 -99 -99 000 000 000 002 003 001 000 000 -99 -99 000 000 -99 000 000 -99 -99 -99 -99 -99 -99 -99 000 000 -99 -99
-99 000 -99 -99 -99 000 001 003 008 007 001 000 -99 -99 -99 -99 -99 -99 000 000 -99 -99 -99 -99 -99 -99 000 000 -99 -99 -99
-99 000 -99 -99 -99 000 003 021 014 002 000 000 -99 -99 -99 -99 -99 -99 -99 -99 -99 -99 -99 -99 -99 -99 -99 000 000 -99 -99
-99 -99 -99 -99 000 000 012 019 004 001 000 000 -99 -99 -99 -99 -99 -99 -99 -99 -99 -99 -99 -99 -99 -99 -99 000 000 -99 -99
-99 -99 -99 -99 000 000 006 012 002 000 000 000 000 000 -99 -99 -99 -99 -99 -99 -99 -99 -99 -99 -99 -99 -99 000 -99 -99 -99
-99 -99 -99 000 000 001 002 001 000 000 001 000 000 000 000 -99 -99 -99 -99 -99 -99 -99 -99 -99 -99 -99 000 -99 -99 -99 -99
-99 -99 -99 000 000 001 001 001 000 001 010 003 001 000 000 000 000 -99 -99 -99 -99 -99 -99 -99 -99 -99 -99 -99 -99 -99 -99
-99 -99 000 000 000 001 001 001 001 004 019 010 005 004 000 000 000 000 000 000 -99 -99 -99 -99 -99 -99 -99 -99 -99 -99 -99
-99 -99 -99 000 000 000 002 003 006 016 033 021 011 006 000 000 000 000 000 000 -99 -99 -99 -99 -99 -99 -99 -99 -99 -99 -99
-99 -99 -99 000 000 001 003 007 020 042 038 035 011 002 001 001 000 000 000 000 -99 -99 -99 -99 -99 -99 -99 -99 -99 -99 -99
